c biodata.txt undirected and loopless
p edge 2112 2203
e 36 2
e 42 7
e 56 41
e 66 44
e 109 14
e 109 102
e 113 21
e 123 15
e 123 52
e 127 26
e 150 17
e 151 70
e 155 77
e 162 90
e 164 150
e 168 26
e 184 42
e 184 150
e 199 165
e 199 174
e 203 157
e 203 197
e 205 93
e 205 99
e 205 203
e 210 76
e 224 54
e 224 60
e 224 63
e 224 107
e 224 153
e 224 178
e 224 204
e 225 125
e 231 36
e 233 14
e 233 199
e 234 42
e 234 191
e 235 3
e 238 107
e 245 100
e 246 102
e 246 109
e 248 33
e 249 37
e 249 199
e 253 123
e 268 224
e 271 150
e 279 127
e 283 75
e 283 150
e 283 160
e 285 225
e 286 233
e 288 185
e 291 97
e 292 131
e 293 28
e 293 98
e 295 284
e 297 224
e 298 216
e 299 266
e 302 240
e 304 41
e 304 277
e 305 33
e 305 123
e 305 248
e 308 96
e 308 281
e 315 205
e 319 21
e 322 186
e 322 232
e 325 196
e 326 12
e 328 42
e 330 194
e 332 122
e 335 106
e 337 122
e 339 242
e 340 205
e 341 213
e 344 258
e 347 242
e 348 77
e 358 224
e 360 320
e 365 224
e 366 15
e 366 267
e 366 305
e 375 150
e 376 150
e 376 185
e 377 224
e 382 233
e 382 318
e 383 211
e 384 322
e 384 336
e 387 91
e 390 302
e 391 105
e 392 188
e 393 37
e 394 209
e 395 61
e 397 150
e 397 205
e 398 90
e 398 162
e 398 187
e 402 126
e 403 208
e 403 316
e 404 358
e 405 177
e 406 179
e 407 205
e 409 116
e 409 150
e 410 203
e 415 185
e 416 122
e 416 252
e 416 337
e 416 357
e 418 108
e 418 224
e 420 9
e 422 136
e 423 411
e 424 33
e 426 203
e 427 14
e 428 275
e 433 260
e 434 197
e 434 210
e 434 323
e 435 224
e 437 224
e 439 224
e 440 224
e 442 122
e 442 222
e 442 337
e 442 375
e 442 416
e 443 249
e 446 195
e 446 199
e 447 258
e 448 124
e 449 361
e 452 164
e 456 213
e 457 381
e 461 224
e 462 450
e 466 293
e 467 40
e 470 348
e 470 423
e 471 411
e 473 345
e 476 150
e 478 72
e 479 403
e 480 109
e 482 18
e 484 188
e 488 291
e 489 192
e 491 210
e 491 294
e 491 476
e 493 306
e 494 102
e 495 443
e 496 185
e 497 344
e 497 447
e 499 393
e 500 205
e 501 197
e 504 337
e 504 374
e 506 23
e 506 72
e 506 74
e 506 212
e 506 314
e 506 345
e 506 408
e 508 78
e 509 37
e 510 337
e 510 416
e 513 308
e 513 476
e 514 450
e 515 473
e 520 80
e 520 322
e 523 56
e 523 146
e 525 193
e 526 233
e 526 382
e 527 436
e 529 213
e 529 290
e 529 413
e 529 475
e 529 494
e 530 107
e 531 109
e 535 125
e 536 8
e 536 123
e 536 148
e 536 151
e 536 187
e 536 253
e 536 313
e 536 395
e 536 398
e 547 29
e 548 224
e 550 328
e 551 261
e 553 227
e 554 51
e 557 206
e 559 428
e 560 196
e 561 137
e 561 462
e 561 464
e 561 495
e 562 359
e 563 369
e 564 199
e 566 337
e 571 245
e 572 521
e 574 425
e 577 357
e 577 515
e 578 450
e 579 205
e 579 515
e 580 27
e 581 180
e 582 276
e 582 464
e 583 303
e 583 518
e 585 105
e 586 64
e 593 337
e 593 442
e 594 152
e 594 262
e 594 411
e 594 423
e 594 470
e 595 584
e 596 64
e 598 406
e 604 192
e 605 320
e 605 360
e 609 300
e 610 491
e 612 245
e 614 11
e 617 185
e 618 33
e 618 109
e 622 77
e 623 545
e 624 300
e 624 609
e 625 156
e 625 513
e 629 423
e 629 594
e 631 17
e 631 125
e 631 591
e 631 609
e 638 121
e 639 259
e 640 34
e 642 289
e 643 51
e 643 554
e 645 233
e 646 606
e 647 302
e 648 9
e 648 384
e 650 252
e 652 501
e 654 224
e 655 248
e 655 305
e 655 424
e 655 618
e 657 244
e 657 646
e 658 110
e 658 400
e 662 257
e 663 354
e 665 57
e 665 568
e 668 71
e 668 182
e 668 302
e 668 399
e 668 626
e 669 223
e 672 4
e 672 249
e 674 199
e 675 118
e 676 102
e 676 109
e 677 582
e 679 64
e 679 614
e 680 11
e 680 377
e 680 512
e 680 542
e 682 353
e 682 474
e 683 409
e 684 527
e 684 662
e 687 15
e 689 176
e 690 185
e 691 37
e 691 230
e 693 205
e 693 515
e 695 326
e 696 515
e 698 224
e 700 224
e 705 402
e 706 307
e 707 320
e 709 510
e 709 657
e 711 416
e 714 398
e 714 547
e 715 213
e 716 122
e 716 510
e 716 593
e 717 659
e 722 296
e 723 123
e 725 719
e 727 632
e 737 536
e 739 196
e 743 424
e 744 224
e 745 421
e 746 150
e 746 185
e 746 376
e 749 667
e 750 438
e 750 711
e 751 347
e 752 424
e 752 655
e 755 337
e 755 416
e 756 506
e 759 125
e 759 609
e 761 301
e 761 376
e 761 746
e 765 451
e 767 367
e 769 306
e 770 703
e 771 225
e 771 485
e 772 224
e 773 196
e 775 442
e 776 224
e 777 185
e 777 768
e 779 320
e 781 51
e 781 513
e 781 554
e 781 643
e 783 316
e 784 48
e 784 127
e 785 387
e 786 224
e 788 536
e 789 224
e 790 271
e 791 733
e 794 465
e 798 503
e 798 575
e 799 429
e 801 646
e 802 200
e 802 791
e 803 763
e 805 336
e 806 224
e 808 736
e 812 568
e 813 188
e 813 484
e 814 72
e 815 104
e 815 137
e 815 382
e 815 443
e 817 109
e 818 403
e 819 17
e 819 24
e 819 45
e 819 92
e 819 95
e 819 189
e 819 197
e 819 308
e 819 495
e 819 517
e 819 528
e 819 556
e 819 701
e 819 737
e 819 750
e 821 590
e 822 224
e 824 486
e 826 652
e 827 137
e 827 381
e 827 520
e 828 201
e 829 89
e 830 738
e 831 403
e 833 555
e 837 403
e 839 350
e 841 245
e 841 347
e 841 520
e 841 650
e 842 269
e 843 35
e 843 124
e 843 625
e 844 43
e 844 319
e 848 320
e 849 224
e 851 196
e 853 710
e 854 510
e 854 616
e 855 506
e 857 2
e 857 6
e 857 94
e 857 103
e 857 191
e 857 342
e 857 755
e 857 795
e 857 840
e 860 224
e 860 583
e 862 392
e 867 429
e 871 14
e 871 638
e 871 650
e 874 32
e 875 697
e 876 348
e 876 351
e 876 495
e 876 584
e 876 595
e 876 638
e 876 650
e 879 231
e 880 403
e 880 542
e 880 679
e 881 161
e 881 506
e 883 265
e 884 729
e 886 815
e 889 196
e 891 480
e 892 199
e 894 115
e 894 296
e 894 434
e 894 857
e 896 206
e 899 594
e 900 37
e 900 499
e 903 888
e 904 205
e 906 29
e 906 631
e 907 224
e 908 611
e 909 14
e 909 15
e 909 123
e 910 177
e 911 56
e 912 158
e 914 638
e 919 109
e 920 46
e 920 55
e 920 183
e 920 203
e 920 205
e 920 334
e 920 723
e 921 320
e 922 638
e 923 316
e 925 226
e 927 861
e 928 793
e 929 37
e 929 59
e 929 182
e 929 357
e 929 370
e 929 393
e 929 443
e 929 499
e 929 509
e 929 589
e 929 615
e 929 691
e 929 740
e 929 741
e 929 852
e 932 668
e 936 528
e 936 807
e 937 451
e 938 409
e 939 94
e 939 514
e 941 859
e 942 327
e 943 202
e 943 820
e 947 361
e 947 449
e 948 354
e 948 761
e 949 493
e 950 398
e 950 594
e 951 366
e 952 382
e 953 744
e 953 822
e 954 150
e 954 515
e 955 349
e 956 379
e 957 249
e 957 778
e 959 815
e 960 563
e 965 272
e 969 376
e 969 811
e 972 289
e 972 820
e 972 943
e 973 229
e 973 661
e 975 220
e 975 607
e 977 51
e 977 554
e 977 641
e 977 643
e 977 781
e 978 61
e 979 587
e 980 377
e 981 962
e 982 224
e 983 199
e 986 150
e 988 64
e 989 241
e 991 112
e 991 576
e 996 42
e 996 652
e 999 409
e 1000 11
e 1000 377
e 1002 639
e 1003 780
e 1004 673
e 1006 431
e 1006 827
e 1006 882
e 1007 36
e 1007 726
e 1009 309
e 1009 487
e 1010 363
e 1011 450
e 1012 205
e 1014 810
e 1015 42
e 1015 857
e 1016 668
e 1017 668
e 1021 668
e 1021 1010
e 1022 802
e 1024 400
e 1024 473
e 1024 658
e 1025 81
e 1026 611
e 1027 31
e 1028 352
e 1029 244
e 1030 137
e 1030 522
e 1030 596
e 1031 206
e 1032 472
e 1033 347
e 1033 582
e 1033 953
e 1034 147
e 1034 274
e 1034 355
e 1034 432
e 1036 236
e 1036 847
e 1038 339
e 1039 980
e 1040 136
e 1040 422
e 1043 985
e 1045 695
e 1045 757
e 1045 992
e 1046 920
e 1047 43
e 1048 227
e 1048 644
e 1048 704
e 1048 857
e 1051 898
e 1052 883
e 1053 42
e 1054 205
e 1056 830
e 1057 14
e 1058 505
e 1058 620
e 1059 611
e 1062 560
e 1063 150
e 1064 536
e 1068 269
e 1069 421
e 1070 819
e 1071 681
e 1072 343
e 1072 535
e 1072 730
e 1072 968
e 1073 520
e 1074 17
e 1075 722
e 1077 224
e 1078 243
e 1079 520
e 1079 857
e 1079 920
e 1080 211
e 1081 651
e 1082 858
e 1083 535
e 1084 109
e 1085 815
e 1088 382
e 1089 215
e 1089 271
e 1090 233
e 1092 124
e 1093 22
e 1094 608
e 1094 662
e 1095 112
e 1095 247
e 1095 250
e 1095 463
e 1095 835
e 1095 924
e 1095 944
e 1095 971
e 1095 991
e 1096 42
e 1096 116
e 1096 117
e 1096 132
e 1097 844
e 1098 51
e 1098 491
e 1098 520
e 1098 554
e 1098 781
e 1098 977
e 1099 233
e 1101 520
e 1102 129
e 1104 94
e 1104 471
e 1104 718
e 1104 761
e 1104 787
e 1104 838
e 1104 1042
e 1104 1057
e 1105 945
e 1106 819
e 1107 371
e 1108 224
e 1109 631
e 1110 514
e 1112 480
e 1113 360
e 1113 605
e 1114 198
e 1115 530
e 1116 256
e 1116 312
e 1117 109
e 1118 785
e 1119 819
e 1120 765
e 1121 866
e 1122 471
e 1123 96
e 1123 150
e 1124 382
e 1125 15
e 1125 52
e 1125 236
e 1125 376
e 1125 746
e 1126 7
e 1126 625
e 1126 692
e 1126 873
e 1126 976
e 1127 346
e 1128 88
e 1130 735
e 1130 945
e 1134 138
e 1136 72
e 1136 506
e 1137 37
e 1137 87
e 1137 379
e 1137 499
e 1137 929
e 1139 1072
e 1140 499
e 1140 929
e 1141 273
e 1142 124
e 1142 448
e 1142 1092
e 1143 37
e 1145 377
e 1145 843
e 1145 891
e 1147 274
e 1147 821
e 1147 946
e 1151 224
e 1152 1055
e 1154 248
e 1155 396
e 1156 536
e 1156 567
e 1157 822
e 1157 836
e 1158 836
e 1159 379
e 1160 219
e 1161 649
e 1164 217
e 1165 58
e 1166 10
e 1166 128
e 1166 691
e 1166 1157
e 1167 382
e 1168 991
e 1169 33
e 1169 150
e 1169 305
e 1169 655
e 1169 1154
e 1170 233
e 1170 382
e 1170 748
e 1170 760
e 1170 846
e 1170 882
e 1171 943
e 1174 836
e 1175 664
e 1175 868
e 1175 1120
e 1176 1004
e 1177 321
e 1178 953
e 1180 382
e 1181 651
e 1183 10
e 1183 127
e 1183 137
e 1183 144
e 1183 158
e 1183 214
e 1183 231
e 1183 271
e 1183 279
e 1183 329
e 1183 357
e 1183 364
e 1183 377
e 1183 388
e 1183 489
e 1183 631
e 1183 679
e 1183 680
e 1183 721
e 1183 722
e 1183 762
e 1183 764
e 1183 774
e 1183 782
e 1183 795
e 1183 836
e 1183 843
e 1183 879
e 1183 886
e 1183 1043
e 1183 1063
e 1184 127
e 1184 357
e 1184 1027
e 1185 382
e 1186 1104
e 1187 263
e 1187 332
e 1187 421
e 1187 1030
e 1188 857
e 1188 1104
e 1189 505
e 1189 620
e 1189 633
e 1190 649
e 1190 728
e 1190 1161
e 1191 819
e 1192 668
e 1193 745
e 1194 96
e 1195 618
e 1196 139
e 1197 473
e 1197 841
e 1197 857
e 1197 1044
e 1199 429
e 1200 631
e 1201 611
e 1202 332
e 1202 336
e 1203 96
e 1203 819
e 1205 218
e 1206 491
e 1207 453
e 1208 1198
e 1209 1126
e 1210 224
e 1211 991
e 1211 1095
e 1212 203
e 1213 65
e 1214 926
e 1219 24
e 1219 111
e 1219 186
e 1219 272
e 1219 308
e 1219 336
e 1219 443
e 1219 520
e 1219 636
e 1219 742
e 1219 796
e 1219 886
e 1219 940
e 1219 959
e 1219 965
e 1219 970
e 1219 1144
e 1219 1183
e 1220 1049
e 1221 292
e 1222 628
e 1223 149
e 1223 464
e 1223 534
e 1224 382
e 1225 1115
e 1226 185
e 1228 151
e 1229 98
e 1229 224
e 1229 293
e 1230 224
e 1232 203
e 1233 52
e 1233 58
e 1233 185
e 1233 376
e 1233 446
e 1233 746
e 1233 776
e 1233 948
e 1234 594
e 1235 332
e 1237 1060
e 1238 464
e 1240 81
e 1241 203
e 1242 819
e 1244 264
e 1244 339
e 1245 1183
e 1247 819
e 1248 64
e 1249 68
e 1249 1170
e 1251 346
e 1251 544
e 1251 915
e 1251 1115
e 1252 631
e 1253 376
e 1253 507
e 1253 688
e 1253 746
e 1254 854
e 1255 22
e 1255 1093
e 1256 357
e 1256 577
e 1257 1095
e 1258 827
e 1259 631
e 1260 166
e 1261 985
e 1262 191
e 1263 749
e 1266 1104
e 1267 555
e 1268 536
e 1268 1064
e 1268 1091
e 1269 404
e 1270 382
e 1270 1065
e 1272 540
e 1272 1271
e 1275 91
e 1276 135
e 1277 205
e 1277 465
e 1277 967
e 1278 834
e 1280 885
e 1281 141
e 1282 955
e 1283 413
e 1285 495
e 1285 542
e 1285 1205
e 1285 1280
e 1286 127
e 1286 1145
e 1287 372
e 1288 1009
e 1290 210
e 1292 638
e 1292 778
e 1293 648
e 1293 784
e 1295 224
e 1296 42
e 1296 420
e 1296 1019
e 1296 1072
e 1298 109
e 1298 233
e 1300 804
e 1302 1009
e 1303 1018
e 1304 1183
e 1305 708
e 1306 245
e 1309 491
e 1311 137
e 1311 337
e 1311 442
e 1311 593
e 1311 679
e 1311 716
e 1312 92
e 1312 517
e 1312 576
e 1312 1086
e 1313 1009
e 1314 224
e 1315 138
e 1315 593
e 1315 596
e 1315 735
e 1316 98
e 1316 293
e 1316 1229
e 1317 224
e 1318 1030
e 1319 1030
e 1320 36
e 1320 150
e 1321 423
e 1321 1233
e 1322 502
e 1324 356
e 1325 920
e 1326 594
e 1328 385
e 1329 224
e 1330 205
e 1331 537
e 1333 272
e 1333 323
e 1333 474
e 1333 679
e 1333 863
e 1333 965
e 1333 1007
e 1333 1249
e 1335 792
e 1336 1006
e 1337 219
e 1337 1246
e 1339 539
e 1339 1272
e 1341 133
e 1342 722
e 1342 897
e 1343 205
e 1343 1006
e 1343 1306
e 1346 857
e 1347 304
e 1348 662
e 1348 827
e 1348 1188
e 1348 1334
e 1349 929
e 1350 1345
e 1352 14
e 1353 403
e 1354 671
e 1354 1301
e 1355 1034
e 1357 1289
e 1358 855
e 1359 150
e 1359 398
e 1359 986
e 1360 568
e 1360 812
e 1362 857
e 1362 992
e 1363 751
e 1364 1345
e 1365 18
e 1365 100
e 1365 398
e 1365 1185
e 1365 1344
e 1366 1055
e 1366 1152
e 1367 1350
e 1368 628
e 1368 1222
e 1369 815
e 1369 859
e 1369 941
e 1370 1016
e 1371 546
e 1371 694
e 1371 725
e 1371 1138
e 1372 771
e 1373 443
e 1373 929
e 1374 1354
e 1375 986
e 1376 387
e 1376 785
e 1376 1118
e 1377 3
e 1377 346
e 1377 1036
e 1378 1354
e 1379 419
e 1379 477
e 1379 1265
e 1380 187
e 1380 536
e 1380 1268
e 1381 472
e 1382 37
e 1382 499
e 1382 509
e 1382 929
e 1383 154
e 1383 163
e 1383 485
e 1383 1020
e 1383 1291
e 1383 1318
e 1384 213
e 1385 890
e 1385 1100
e 1386 1362
e 1387 190
e 1388 51
e 1388 554
e 1388 643
e 1388 781
e 1388 977
e 1389 471
e 1390 134
e 1390 202
e 1390 270
e 1390 483
e 1390 497
e 1390 541
e 1390 636
e 1390 652
e 1390 724
e 1390 769
e 1390 960
e 1390 965
e 1390 1006
e 1390 1149
e 1390 1204
e 1390 1307
e 1391 819
e 1392 538
e 1393 1009
e 1394 360
e 1394 605
e 1394 1113
e 1395 139
e 1395 356
e 1395 1196
e 1396 423
e 1396 876
e 1396 1183
e 1396 1219
e 1396 1273
e 1397 96
e 1398 56
e 1398 999
e 1398 1126
e 1399 44
e 1399 159
e 1399 506
e 1399 650
e 1400 286
e 1400 552
e 1400 641
e 1400 656
e 1400 678
e 1400 871
e 1400 876
e 1400 933
e 1400 971
e 1401 735
e 1401 1365
e 1402 1180
e 1402 1334
e 1404 368
e 1407 631
e 1407 759
e 1408 536
e 1408 832
e 1408 1036
e 1408 1125
e 1408 1156
e 1408 1233
e 1409 524
e 1412 140
e 1413 1362
e 1414 224
e 1415 187
e 1415 376
e 1415 650
e 1415 746
e 1415 761
e 1415 776
e 1415 988
e 1415 1233
e 1415 1401
e 1417 13
e 1418 109
e 1419 824
e 1419 966
e 1422 224
e 1424 539
e 1424 540
e 1424 1219
e 1424 1271
e 1424 1339
e 1425 1253
e 1427 720
e 1427 736
e 1428 720
e 1429 48
e 1429 127
e 1429 784
e 1431 278
e 1432 520
e 1432 819
e 1433 903
e 1433 1215
e 1436 680
e 1437 888
e 1437 889
e 1438 224
e 1439 682
e 1439 1121
e 1439 1294
e 1440 943
e 1441 199
e 1442 331
e 1443 929
e 1444 4
e 1444 74
e 1444 249
e 1444 672
e 1444 1244
e 1445 203
e 1445 205
e 1445 471
e 1445 920
e 1445 929
e 1445 1197
e 1446 224
e 1448 64
e 1448 1063
e 1448 1447
e 1450 349
e 1450 819
e 1450 1252
e 1450 1418
e 1450 1423
e 1451 1309
e 1451 1410
e 1452 873
e 1453 1296
e 1454 1045
e 1454 1147
e 1455 224
e 1456 1277
e 1457 42
e 1457 533
e 1458 1390
e 1459 529
e 1460 492
e 1461 492
e 1461 1183
e 1462 403
e 1462 1355
e 1464 310
e 1464 349
e 1464 377
e 1464 1000
e 1465 167
e 1466 1223
e 1467 754
e 1467 1153
e 1468 271
e 1468 920
e 1469 605
e 1471 311
e 1471 974
e 1471 1007
e 1471 1338
e 1471 1411
e 1474 150
e 1474 577
e 1474 596
e 1474 1256
e 1475 224
e 1476 403
e 1477 631
e 1478 570
e 1478 571
e 1478 1146
e 1478 1359
e 1479 42
e 1479 375
e 1480 920
e 1481 693
e 1482 1050
e 1482 1067
e 1484 37
e 1484 249
e 1484 348
e 1484 499
e 1484 929
e 1484 1137
e 1484 1373
e 1485 199
e 1486 1472
e 1487 224
e 1488 857
e 1489 3
e 1489 235
e 1490 203
e 1490 857
e 1491 1135
e 1491 1162
e 1491 1219
e 1491 1333
e 1492 184
e 1492 203
e 1493 1181
e 1494 699
e 1494 871
e 1496 759
e 1497 150
e 1497 472
e 1497 535
e 1497 609
e 1497 1296
e 1498 30
e 1499 499
e 1499 568
e 1499 646
e 1499 812
e 1499 1360
e 1502 348
e 1502 778
e 1502 1150
e 1502 1392
e 1503 382
e 1504 568
e 1504 812
e 1504 1360
e 1504 1499
e 1505 638
e 1507 1281
e 1508 929
e 1509 229
e 1509 379
e 1512 403
e 1512 1390
e 1513 224
e 1514 660
e 1515 1055
e 1515 1152
e 1517 631
e 1517 1087
e 1517 1179
e 1517 1296
e 1518 958
e 1519 1464
e 1520 402
e 1521 536
e 1521 847
e 1521 1380
e 1521 1401
e 1521 1408
e 1522 376
e 1522 731
e 1522 916
e 1522 1415
e 1523 101
e 1523 180
e 1523 181
e 1524 1506
e 1525 455
e 1525 714
e 1526 224
e 1527 761
e 1528 450
e 1528 868
e 1530 639
e 1532 37
e 1532 499
e 1532 929
e 1533 375
e 1533 406
e 1533 1430
e 1533 1479
e 1534 72
e 1534 506
e 1535 1144
e 1536 29
e 1536 123
e 1536 313
e 1536 398
e 1536 536
e 1536 811
e 1536 906
e 1536 1064
e 1537 946
e 1539 203
e 1539 520
e 1542 527
e 1545 590
e 1547 238
e 1547 611
e 1548 15
e 1548 305
e 1548 366
e 1548 816
e 1548 951
e 1549 765
e 1550 611
e 1552 1219
e 1552 1333
e 1553 895
e 1553 1154
e 1554 528
e 1554 807
e 1554 936
e 1555 357
e 1557 402
e 1557 578
e 1558 1226
e 1559 543
e 1560 945
e 1561 185
e 1561 662
e 1562 1133
e 1563 819
e 1564 425
e 1564 693
e 1564 1481
e 1565 187
e 1565 948
e 1565 1334
e 1565 1401
e 1566 555
e 1567 631
e 1568 1499
e 1569 506
e 1570 89
e 1570 589
e 1570 660
e 1570 800
e 1570 929
e 1570 1312
e 1573 91
e 1574 648
e 1575 72
e 1575 506
e 1577 224
e 1578 819
e 1579 172
e 1579 891
e 1579 1148
e 1579 1308
e 1581 680
e 1581 757
e 1581 1464
e 1582 196
e 1582 349
e 1582 604
e 1582 732
e 1582 894
e 1582 1150
e 1582 1362
e 1582 1383
e 1582 1392
e 1582 1400
e 1583 34
e 1583 640
e 1584 384
e 1584 1270
e 1585 413
e 1585 1283
e 1585 1351
e 1586 529
e 1586 1336
e 1587 19
e 1587 1521
e 1588 1145
e 1588 1365
e 1589 257
e 1590 900
e 1591 224
e 1592 1182
e 1595 819
e 1595 857
e 1595 991
e 1595 1095
e 1595 1312
e 1597 745
e 1598 576
e 1599 232
e 1599 254
e 1599 272
e 1599 480
e 1599 600
e 1599 634
e 1599 747
e 1599 817
e 1599 965
e 1599 1392
e 1600 442
e 1601 33
e 1601 424
e 1601 655
e 1601 752
e 1601 1219
e 1602 449
e 1602 947
e 1602 1236
e 1603 827
e 1603 1348
e 1604 109
e 1604 1146
e 1606 22
e 1606 1093
e 1606 1255
e 1609 1551
e 1610 738
e 1610 1013
e 1611 991
e 1611 1095
e 1612 652
e 1613 1390
e 1614 996
e 1615 238
e 1615 332
e 1615 1566
e 1616 209
e 1617 378
e 1617 1333
e 1618 738
e 1618 895
e 1618 1154
e 1619 203
e 1620 127
e 1620 1286
e 1621 10
e 1621 1497
e 1623 308
e 1623 941
e 1623 1392
e 1625 1426
e 1626 210
e 1626 354
e 1626 376
e 1626 476
e 1626 597
e 1626 687
e 1626 746
e 1626 761
e 1626 843
e 1626 850
e 1626 948
e 1626 1036
e 1626 1076
e 1626 1125
e 1626 1361
e 1627 734
e 1628 769
e 1628 841
e 1628 915
e 1628 1183
e 1628 1499
e 1629 352
e 1630 1279
e 1631 42
e 1631 472
e 1631 1219
e 1632 1588
e 1633 481
e 1634 791
e 1636 650
e 1638 1390
e 1639 205
e 1639 819
e 1641 1599
e 1643 658
e 1645 493
e 1645 1362
e 1646 9
e 1646 648
e 1647 491
e 1648 2
e 1648 1121
e 1650 535
e 1650 631
e 1650 759
e 1650 1536
e 1651 1250
e 1652 1543
e 1653 109
e 1653 233
e 1653 997
e 1654 1007
e 1655 841
e 1656 225
e 1657 384
e 1658 491
e 1659 929
e 1660 120
e 1662 1006
e 1663 224
e 1664 638
e 1665 961
e 1666 263
e 1666 1391
e 1666 1582
e 1667 357
e 1668 452
e 1669 531
e 1671 1390
e 1672 1593
e 1673 1666
e 1674 188
e 1674 484
e 1674 813
e 1675 1170
e 1676 76
e 1676 1045
e 1678 1170
e 1680 603
e 1680 605
e 1680 680
e 1680 745
e 1680 1155
e 1680 1292
e 1680 1531
e 1680 1576
e 1681 125
e 1681 954
e 1682 1127
e 1682 1371
e 1684 1392
e 1685 102
e 1685 397
e 1685 408
e 1685 498
e 1685 741
e 1685 1379
e 1685 1435
e 1686 224
e 1688 628
e 1688 1368
e 1689 1297
e 1690 119
e 1691 558
e 1693 236
e 1693 399
e 1693 1172
e 1693 1408
e 1693 1522
e 1693 1626
e 1694 1071
e 1696 877
e 1698 150
e 1698 388
e 1698 1143
e 1698 1219
e 1698 1470
e 1698 1529
e 1699 619
e 1699 680
e 1699 712
e 1699 768
e 1699 1183
e 1699 1359
e 1701 127
e 1702 784
e 1703 784
e 1704 237
e 1707 1706
e 1708 1706
e 1709 1706
e 1711 1180
e 1712 1180
e 1713 1180
e 1714 123
e 1714 150
e 1715 15
e 1715 123
e 1715 1365
e 1716 123
e 1717 123
e 1719 1415
e 1720 1626
e 1721 1626
e 1722 1415
e 1722 1538
e 1722 1716
e 1723 472
e 1723 1722
e 1724 1722
e 1725 1722
e 1726 997
e 1727 997
e 1728 588
e 1729 376
e 1729 746
e 1729 1233
e 1729 1728
e 1730 1728
e 1731 29
e 1731 969
e 1732 761
e 1733 15
e 1734 15
e 1735 15
e 1736 15
e 1737 109
e 1738 109
e 1739 14
e 1739 109
e 1740 1366
e 1742 233
e 1745 1623
e 1745 1744
e 1746 42
e 1746 1744
e 1747 1744
e 1748 472
e 1748 568
e 1748 1744
e 1749 568
e 1749 1738
e 1750 310
e 1750 314
e 1750 473
e 1750 495
e 1750 882
e 1750 1418
e 1750 1561
e 1750 1656
e 1750 1738
e 1751 1750
e 1752 1750
e 1753 1750
e 1754 14
e 1755 91
e 1756 91
e 1757 1188
e 1758 1188
e 1759 350
e 1759 1188
e 1760 1121
e 1761 1121
e 1762 1185
e 1763 799
e 1764 1763
e 1765 1763
e 1766 1615
e 1769 222
e 1770 520
e 1771 520
e 1772 942
e 1772 984
e 1774 1773
e 1776 148
e 1777 148
e 1780 376
e 1780 746
e 1781 1754
e 1783 339
e 1783 1534
e 1784 1783
e 1785 1783
e 1786 1783
e 1787 1783
e 1789 24
e 1789 29
e 1789 104
e 1789 398
e 1789 474
e 1789 476
e 1789 547
e 1789 735
e 1789 855
e 1789 1056
e 1789 1565
e 1789 1731
e 1790 150
e 1790 1789
e 1791 42
e 1791 1789
e 1792 1789
e 1793 561
e 1793 1789
e 1794 1233
e 1794 1789
e 1795 1789
e 1796 1789
e 1797 1789
e 1798 1789
e 1803 68
e 1807 1793
e 1808 586
e 1808 1807
e 1809 1807
e 1810 100
e 1811 601
e 1814 298
e 1814 1762
e 1815 1814
e 1816 1814
e 1817 347
e 1818 1817
e 1819 1635
e 1820 148
e 1820 1045
e 1820 1381
e 1821 1820
e 1822 64
e 1823 655
e 1823 1011
e 1824 1536
e 1825 1145
e 1825 1219
e 1826 1145
e 1827 1145
e 1828 834
e 1829 834
e 1830 834
e 1831 834
e 1832 815
e 1833 815
e 1834 815
e 1835 815
e 1843 17
e 1843 24
e 1843 185
e 1843 625
e 1843 1499
e 1843 1759
e 1844 1843
e 1846 98
e 1846 185
e 1846 306
e 1846 316
e 1846 965
e 1846 976
e 1846 986
e 1846 1051
e 1846 1272
e 1846 1462
e 1846 1552
e 1846 1573
e 1846 1723
e 1846 1768
e 1846 1825
e 1847 1846
e 1848 1846
e 1849 1846
e 1850 1846
e 1851 1846
e 1852 1846
e 1853 1846
e 1854 1846
e 1859 1858
e 1862 1309
e 1862 1542
e 1862 1792
e 1863 1862
e 1865 235
e 1865 1371
e 1866 682
e 1867 462
e 1868 548
e 1868 1402
e 1869 1868
e 1870 1586
e 1871 1868
e 1872 1868
e 1873 462
e 1873 561
e 1873 868
e 1873 1402
e 1873 1791
e 1874 1045
e 1874 1873
e 1875 1873
e 1876 1873
e 1879 561
e 1886 1045
e 1887 1045
e 1888 1045
e 1889 1045
e 1890 1045
e 1891 1045
e 1892 1045
e 1893 1045
e 1894 1045
e 1895 1045
e 1896 1045
e 1897 211
e 1897 959
e 1897 1365
e 1898 508
e 1901 1294
e 1901 1495
e 1901 1811
e 1901 1899
e 1902 1901
e 1903 1901
e 1905 1157
e 1905 1220
e 1906 1905
e 1907 1905
e 1908 1905
e 1909 1905
e 1910 1905
e 1911 1905
e 1912 1905
e 1913 1905
e 1914 1905
e 1915 1905
e 1916 1905
e 1917 1588
e 1918 450
e 1919 1623
e 1920 581
e 1921 581
e 1922 1745
e 1923 42
e 1923 1366
e 1925 846
e 1925 1154
e 1925 1725
e 1926 1925
e 1927 1925
e 1928 1925
e 1929 1925
e 1930 1925
e 1931 1925
e 1932 1925
e 1933 1925
e 1936 1402
e 1936 1875
e 1937 1936
e 1938 543
e 1943 1942
e 1944 1942
e 1946 625
e 1946 1736
e 1946 1945
e 1947 1557
e 1948 1557
e 1949 1946
e 1949 1948
e 1952 398
e 1953 398
e 1955 42
e 1956 42
e 1957 42
e 1958 42
e 1959 42
e 1960 42
e 1961 42
e 1962 42
e 1963 42
e 1964 42
e 1965 1946
e 1966 29
e 1967 29
e 1968 343
e 1968 1219
e 1969 343
e 1970 1341
e 1971 1919
e 1972 1919
e 1973 1919
e 1974 24
e 1974 810
e 1974 1032
e 1974 1365
e 1974 1542
e 1974 1628
e 1975 1974
e 1976 1974
e 1977 609
e 1977 1407
e 1977 1974
e 1978 1380
e 1979 150
e 1980 150
e 1981 150
e 1982 150
e 1983 150
e 1984 150
e 1985 150
e 1986 1402
e 1987 322
e 1988 1219
e 1995 802
e 1996 428
e 1997 1753
e 2000 1999
e 2001 472
e 2002 472
e 2003 472
e 2004 1364
e 2006 1631
e 2006 1960
e 2007 1233
e 2008 1547
e 2009 1548
e 2010 2
e 2010 942
e 2010 1371
e 2010 1547
e 2010 1682
e 2011 423
e 2012 356
e 2013 356
e 2014 355
e 2014 356
e 2014 1395
e 2014 2012
e 2014 2013
e 2015 356
e 2016 323
e 2017 510
e 2018 416
e 2018 510
e 2018 578
e 2019 510
e 2019 709
e 2021 2020
e 2022 752
e 2023 107
e 2024 107
e 2025 2
e 2025 2022
e 2026 111
e 2026 136
e 2026 442
e 2027 2026
e 2028 442
e 2029 498
e 2029 1634
e 2030 337
e 2030 416
e 2030 711
e 2031 536
e 2032 951
e 2033 120
e 2033 1660
e 2035 323
e 2036 2014
e 2037 810
e 2038 395
e 2039 238
e 2039 2023
e 2040 542
e 2040 614
e 2040 679
e 2040 887
e 2041 1515
e 2042 198
e 2043 1021
e 2044 337
e 2044 755
e 2045 337
e 2046 337
e 2046 2030
e 2048 2047
e 2049 811
e 2049 1977
e 2050 1865
e 2051 1223
e 2052 332
e 2053 1832
e 2054 361
e 2054 947
e 2055 1061
e 2056 366
e 2057 1615
e 2058 1615
e 2060 102
e 2061 582
e 2062 582
e 2063 303
e 2064 764
e 2064 1025
e 2065 296
e 2066 1226
e 2067 36
e 2068 36
e 2069 539
e 2069 1424
e 2070 777
e 2071 777
e 2072 777
e 2073 790
e 2074 1219
e 2075 745
e 2076 745
e 2077 978
e 2078 1116
e 2079 2060
e 2081 2080
e 2082 2081
e 2084 1998
e 2085 2078
e 2087 2086
e 2090 158
e 2091 158
e 2093 2092
e 2094 2075
e 2095 1977
e 2096 702
e 2097 2094
e 2098 2094
e 2100 2099
e 2102 2101
e 2103 1985
e 2105 794
e 2107 2106
e 2109 2108
e 2112 2111
